0 2336
1 2085
2 2040
3 1943
4 1898
5 1835
6 1770
7 1770
8 1689
9 1689
10 1632
11 1621
12 1621
13 1621
14 1621
15 1621
16 1547
17 1542
18 1542
19 1493
20 1493
21 1493
22 1460
23 1442
24 1441
25 1439
26 1439
27 1400
28 1400
29 1386
30 1386
31 1346
32 1346
33 1331
34 1331
35 1331
36 1331
37 1331
38 1331
39 1331
40 1331
41 1331
42 1331
43 1278
44 1273
45 1273
46 1273
47 1256
48 1256
49 1248
50 1248
51 1248
52 1246
53 1246
54 1246
55 1246
56 1246
57 1246
58 1246
59 1228
60 1228
61 1228
62 1224
63 1224
64 1224
65 1224
66 1224
67 1224
68 1224
69 1224
70 1224
71 1224
72 1191
73 1191
74 1186
75 1181
76 1181
77 1181
78 1181
79 1181
80 1181
81 1181
82 1177
83 1177
84 1174
85 1174
86 1174
87 1174
88 1174
89 1174
90 1174
91 1174
92 1174
93 1174
94 1174
95 1174
96 1174
97 1174
98 1174
99 1174
100 1174
101 1174
102 1174
103 1174
104 1174
105 1174
106 1174
107 1174
108 1174
109 1174
110 1174
111 1174
112 1174
113 1174
114 1174
115 1174
116 1174
117 1174
118 1174
119 1174
120 1174
121 1174
122 1172
123 1172
124 1172
125 1172
126 1172
127 1172
128 1172
129 1172
130 1172
131 1172
132 1169
133 1169
134 1169
135 1169
136 1161
137 1161
138 1161
139 1161
140 1161
141 1158
142 1158
143 1158
144 1158
145 1158
146 1158
147 1158
148 1158
149 1158
150 1158
151 1158
152 1158
153 1158
154 1158
155 1158
156 1158
157 1158
158 1158
159 1158
160 1158
161 1158
162 1158
163 1158
164 1158
165 1158
166 1158
167 1158
168 1158
169 1158
170 1158
171 1158
172 1158
173 1158
174 1158
175 1158
176 1158
177 1158
178 1158
179 1158
180 1158
181 1158
182 1158
183 1158
184 1158
185 1158
186 1158
187 1158
188 1158
189 1158
190 1158
191 1158
192 1158
193 1158
194 1158
195 1158
196 1158
197 1130
198 1130
199 1130
200 1130
201 1130
202 1130
203 1130
204 1130
205 1130
206 1130
207 1130
208 1130
209 1130
210 1130
211 1130
212 1130
213 1130
214 1130
215 1130
216 1130
217 1130
218 1130
219 1130
220 1130
221 1130
222 1130
223 1130
224 1130
225 1130
226 1130
227 1130
228 1130
229 1130
230 1130
231 1130
232 1130
233 1130
234 1130
235 1130
236 1130
237 1130
238 1130
239 1130
240 1130
241 1130
242 1130
243 1130
244 1130
245 1130
246 1130
247 1130
248 1130
249 1130
250 1130
251 1130
252 1130
253 1130
254 1130
255 1130
256 1130
257 1130
258 1130
259 1130
260 1130
261 1130
262 1130
263 1130
264 1130
265 1130
266 1130
267 1130
268 1130
269 1130
270 1130
271 1129
272 1129
273 1129
274 1129
275 1129
276 1129
277 1129
278 1129
279 1129
280 1129
281 1129
282 1129
283 1129
284 1129
285 1129
286 1129
287 1129
288 1129
289 1129
290 1129
291 1129
292 1129
293 1129
294 1129
295 1129
296 1129
297 1129
298 1129
299 1129
300 1129
301 1129
302 1129
303 1129
304 1129
305 1129
306 1129
307 1129
308 1129
309 1129
310 1129
311 1129
312 1129
313 1129
314 1129
315 1129
316 1129
317 1129
318 1129
319 1129
320 1129
321 1129
322 1129
323 1129
324 1129
325 1129
326 1129
327 1129
328 1129
329 1129
330 1129
331 1129
332 1129
333 1129
334 1129
335 1129
336 1129
337 1129
338 1129
339 1129
340 1129
341 1129
342 1129
343 1129
344 1129
345 1129
346 1129
347 1129
348 1129
349 1129
350 1129
351 1129
352 1129
353 1129
354 1129
355 1129
356 1129
357 1129
358 1129
359 1129
360 1129
361 1129
362 1129
363 1129
364 1129
365 1129
366 1129
367 1129
368 1129
369 1129
370 1129
371 1129
372 1129
373 1129
374 1129
375 1129
376 1129
377 1129
378 1129
379 1129
380 1129
381 1129
382 1129
383 1129
384 1129
385 1129
386 1129
387 1129
388 1129
389 1129
390 1129
391 1129
392 1129
393 1129
394 1129
395 1129
396 1129
397 1129
398 1129
399 1129
400 1129
401 1129
402 1129
403 1129
404 1129
405 1129
406 1129
407 1129
408 1129
409 1129
410 1129
411 1129
412 1129
413 1129
414 1129
415 1129
416 1129
417 1129
418 1129
419 1129
420 1129
421 1129
422 1129
423 1129
424 1129
425 1129
426 1129
427 1129
428 1129
429 1129
430 1129
431 1129
432 1129
433 1129
434 1129
435 1129
436 1129
437 1129
438 1129
439 1129
440 1129
441 1129
442 1129
443 1129
444 1129
445 1129
446 1129
447 1129
448 1129
449 1129
450 1129
451 1129
452 1129
453 1129
454 1129
455 1129
456 1129
457 1129
458 1129
459 1129
460 1129
461 1129
462 1129
463 1129
464 1129
465 1129
466 1129
467 1129
468 1129
469 1129
470 1129
471 1129
472 1129
473 1129
474 1129
475 1129
476 1129
477 1129
478 1129
479 1129
480 1129
481 1129
482 1129
483 1129
484 1129
485 1129
486 1129
487 1129
488 1129
489 1129
490 1129
491 1129
492 1129
493 1129
494 1129
495 1129
496 1129
497 1129
498 1129
499 1129
500 1129
501 1129
502 1129
503 1129
504 1129
505 1129
506 1129
507 1129
508 1129
509 1129
510 1129
511 1129
512 1129
513 1129
514 1129
515 1129
516 1129
517 1129
518 1129
519 1129
520 1129
521 1129
522 1129
523 1129
524 1129
525 1129
526 1129
527 1129
528 1129
529 1129
530 1129
531 1129
532 1129
533 1129
534 1129
535 1129
536 1129
537 1129
538 1129
539 1129
540 1129
541 1129
542 1129
543 1129
544 1129
545 1129
546 1129
547 1129
548 1129
549 1129
550 1129
551 1129
552 1129
553 1129
554 1129
555 1129
556 1129
557 1129
558 1129
559 1129
560 1129
561 1129
562 1129
563 1129
564 1129
565 1129
566 1129
567 1129
568 1129
569 1129
570 1129
571 1129
572 1129
573 1129
574 1129
575 1129
576 1129
577 1129
578 1129
579 1129
580 1129
581 1129
582 1129
583 1129
584 1129
585 1129
586 1129
587 1129
588 1129
589 1129
590 1129
591 1129
592 1129
593 1129
594 1129
595 1129
596 1129
597 1129
598 1129
599 1129
600 1129
601 1129
602 1129
603 1129
604 1129
605 1129
606 1129
607 1129
608 1129
609 1129
610 1129
611 1129
612 1129
613 1129
614 1129
615 1129
616 1129
617 1129
618 1129
619 1129
620 1129
621 1129
622 1129
623 1129
624 1129
625 1129
626 1129
627 1129
628 1129
629 1129
630 1129
631 1129
632 1129
633 1129
634 1129
635 1129
636 1129
637 1129
638 1129
639 1129
640 1129
641 1129
642 1129
643 1129
644 1129
645 1129
646 1129
647 1129
648 1129
649 1129
650 1129
651 1129
652 1129
653 1129
654 1129
655 1129
656 1129
657 1129
658 1129
659 1129
660 1129
661 1129
662 1129
663 1129
664 1129
665 1129
666 1129
667 1129
668 1129
669 1129
670 1129
671 1129
672 1129
673 1129
674 1129
675 1129
676 1129
677 1129
678 1129
679 1129
680 1129
681 1129
682 1129
683 1129
684 1129
685 1129
686 1129
687 1129
688 1129
689 1129
690 1129
691 1129
692 1129
693 1129
694 1129
695 1129
696 1129
697 1129
698 1129
699 1129
700 1129
701 1129
702 1129
703 1129
704 1129
705 1129
706 1129
707 1129
708 1129
709 1129
710 1129
711 1129
712 1129
713 1129
714 1129
715 1129
716 1129
717 1129
718 1129
719 1129
720 1129
721 1129
722 1129
723 1129
724 1129
725 1129
726 1129
727 1129
728 1129
729 1129
730 1129
731 1129
732 1129
733 1129
734 1129
735 1129
736 1129
737 1129
738 1129
739 1129
740 1129
741 1129
742 1129
743 1129
744 1129
745 1129
746 1129
747 1129
748 1129
749 1129
750 1129
751 1129
752 1129
753 1129
754 1129
755 1129
756 1129
757 1129
758 1129
759 1129
760 1129
761 1129
762 1129
763 1129
764 1129
765 1129
766 1129
767 1129
768 1129
769 1129
770 1129
771 1129
772 1129
773 1129
774 1129
775 1129
776 1129
777 1129
778 1129
779 1129
780 1129
781 1129
782 1129
783 1129
784 1129
785 1129
786 1129
787 1129
788 1129
789 1129
790 1129
791 1129
792 1129
793 1129
794 1129
795 1129
796 1129
797 1129
798 1129
799 1129
800 1129
801 1129
802 1129
803 1129
804 1129
805 1129
806 1129
807 1129
808 1129
809 1129
810 1129
811 1129
812 1129
813 1129
814 1129
815 1129
816 1129
817 1129
818 1129
819 1129
820 1129
821 1129
822 1129
823 1129
824 1129
825 1129
826 1129
827 1129
828 1129
829 1129
830 1129
831 1129
832 1129
833 1129
834 1129
835 1129
836 1129
837 1129
838 1129
839 1129
840 1129
841 1129
842 1129
843 1129
844 1129
845 1129
846 1129
847 1129
848 1129
849 1129
850 1129
851 1129
852 1129
853 1129
854 1129
855 1129
856 1129
857 1129
858 1129
859 1129
860 1129
861 1129
862 1129
863 1129
864 1129
865 1129
866 1129
867 1129
868 1129
869 1129
870 1129
871 1129
872 1129
873 1129
874 1129
875 1129
876 1129
877 1129
878 1129
879 1129
880 1129
881 1129
882 1129
883 1129
884 1129
885 1129
886 1129
887 1129
888 1129
889 1129
890 1129
891 1129
892 1129
893 1129
894 1129
895 1129
896 1129
897 1129
898 1129
899 1129
900 1129
901 1129
902 1129
903 1129
904 1129
905 1129
906 1129
907 1129
908 1129
909 1129
910 1129
911 1129
912 1129
913 1129
914 1129
915 1129
916 1129
917 1129
918 1129
919 1129
920 1129
921 1129
922 1129
923 1129
924 1129
925 1129
926 1129
927 1129
928 1129
929 1129
930 1129
931 1129
932 1129
933 1129
934 1129
935 1129
936 1129
937 1129
938 1129
939 1129
940 1129
941 1129
942 1129
943 1129
944 1129
945 1129
946 1129
947 1129
948 1129
949 1129
950 1129
951 1129
952 1129
953 1129
954 1129
955 1129
956 1129
957 1129
958 1129
959 1129
960 1129
961 1129
962 1129
963 1129
964 1129
965 1129
966 1129
967 1129
968 1129
969 1129
970 1129
971 1129
972 1129
973 1129
974 1129
975 1129
976 1129
977 1129
978 1129
979 1129
980 1129
981 1129
982 1129
983 1129
984 1129
985 1129
986 1129
987 1129
988 1129
989 1129
990 1129
991 1129
992 1129
993 1129
994 1129
995 1129
996 1129
997 1129
998 1129
999 1129
Best: [[31,17,27,30,16,26,28],
       [2,22,32,29,5,12,9,21],
       [6,11,23,10,19,7,14,8,13],
       [25,15,20,18,3,4,24]], fitness: 1129
